Maximize

5 x_0 + 4 x_1 + 4 x_2 + 2 x_3 + 5 x_4


Subject To

a0: x_0 + x_1 > 0
a1: x_2 > 0
a2: x_3 + x_4 > 0
b0: x_0 + x_1 - x_2 >= 0
b1: x_0 + x_1 - x_3 - x_4 >= 0
c0: 30 x_1 + 15 x_1 + 20 x_1 - 20 x_0 - 20 x_1 - 20 x_2 >= 0
d0: 80 x_0 + 120 x_1 + 60 x_2 + 190 x_3 + 130 x_4 <= 400




Binary

x_0 x_1 x_2 x_3 x_4

 


End
